(set-logic QF_S)
(set-option :produce-models true)

(declare-fun temp2_4296_4317 () String)
(declare-fun s4317 () String)
(declare-fun temp1_4296_4312 () String)
(declare-fun temp2_4296_4307 () String)
(declare-fun temp1_4296_4322 () String)
(declare-fun s4307 () String)
(declare-fun temp1_4296_4307 () String)
(declare-fun temp1_4296_4317 () String)
(declare-fun s4312 () String)
(declare-fun temp2_4296_4312 () String)
(declare-fun s4347 () String)
(declare-fun s4296 () String)
(declare-fun s5045 () String)
(declare-fun s4322 () String)
(declare-fun temp2_4296_4322 () String)

(assert (not (= s4312 temp2_4296_4312) ) )
(assert (= (str.len temp1_4296_4317) (str.len s4317) ) )
(assert (= s5045 "..." ))
(assert (= (str.len temp2_4296_4322) (str.len s4322) ) )
(assert (not (= s4317 temp1_4296_4317) ) )
(assert (= (str.++ temp1_4296_4307 temp2_4296_4307) s4296) )
(assert (not (= s4322 temp2_4296_4322) ) )
(assert (not (= s4307 temp1_4296_4307) ) )
(assert (= (str.len temp2_4296_4312) (str.len s4312) ) )
(assert (= (str.len temp1_4296_4307) (str.len s4307) ) )
(assert (= s4347 "..." ))
(assert (= (str.++ temp1_4296_4317 temp2_4296_4317) s4296) )
(assert (not (= s4296 s4347 )))
(assert (= s4296 s5045 ))
(assert (= (str.++ temp1_4296_4312 temp2_4296_4312) s4296) )
(assert (not (= s4296 s5045 )))
(assert (= (str.++ temp1_4296_4322 temp2_4296_4322) s4296) )


(check-sat)
(get-model)
